100 90 10
0 1 0
1 2 0
2 3 0
3 4 0
4 5 0
5 6 0
6 7 0
7 8 0
8 9 0
10 11 1
11 12 1
12 13 1
13 14 1
14 15 1
15 16 1
16 17 1
17 18 1
18 19 1
20 21 2
21 22 2
22 23 2
23 24 2
24 25 2
25 26 2
26 27 2
27 28 2
28 29 2
30 31 3
31 32 3
32 33 3
33 34 3
34 35 3
35 36 3
36 37 3
37 38 3
38 39 3
40 41 4
41 42 4
42 43 4
43 44 4
44 45 4
45 46 4
46 47 4
47 48 4
48 49 4
50 51 5
51 52 5
52 53 5
53 54 5
54 55 5
55 56 5
56 57 5
57 58 5
58 59 5
60 61 6
61 62 6
62 63 6
63 64 6
64 65 6
65 66 6
66 67 6
67 68 6
68 69 6
70 71 7
71 72 7
72 73 7
73 74 7
74 75 7
75 76 7
76 77 7
77 78 7
78 79 7
80 81 8
81 82 8
82 83 8
83 84 8
84 85 8
85 86 8
86 87 8
87 88 8
88 89 8
90 91 9
91 92 9
92 93 9
93 94 9
94 95 9
95 96 9
96 97 9
97 98 9
98 99 9
1 0 72
1 1 64
1 2 55
1 3 31
1 4 53
1 5 95
1 6 11
1 7 52
1 8 6
1 9 84
1 0 61
1 3 27
1 4 88
1 2 78
1 1 49
1 5 83
1 8 91
1 6 74
1 7 29
1 9 87
1 0 86
1 3 32
1 1 35
1 2 37
1 5 18
1 4 48
1 6 91
1 7 52
1 9 60
1 8 30
1 0 8
1 1 82
1 4 27
1 3 99
1 6 74
1 5 9
1 2 33
1 9 20
1 7 59
1 8 98
1 1 50
1 0 94
1 5 43
1 3 62
1 4 55
1 7 48
1 2 5
1 8 36
1 9 47
1 6 36
1 0 53
1 6 30
1 2 7
1 3 12
1 1 68
1 8 87
1 4 28
1 9 70
1 7 45
1 5 7
1 2 29
1 3 96
1 0 99
1 1 14
1 4 34
1 7 14
1 5 7
1 6 76
1 8 57
1 9 76
1 2 90
1 0 19
1 3 87
1 4 51
1 1 84
1 5 45
1 9 84
1 6 58
1 7 81
1 8 96
1 2 97
1 1 99
1 4 93
1 0 38
1 7 13
1 5 96
1 3 40
1 9 64
1 6 32
1 8 45
1 2 44
1 0 60
1 8 29
1 3 5
1 6 74
1 1 85
1 4 34
1 7 95
1 9 51
1 5 47